(set-logic LIA)
(declare-var x Int)
(declare-var y Int)
(declare-var i Int)
(declare-var j Int)
(declare-var x! Int)
(declare-var y! Int)
(declare-var i! Int)
(declare-var j! Int)
(synth-fun inv-f((parameter0 Int)(parameter1 Int)(parameter2 Int)(parameter3 Int))Bool) 
(constraint (=> (and (= x i) (= y j) )(inv-f x y i j )))
(constraint (=> (and (inv-f x y i j ) (or (and (not (= x 0)) (and (= x! (- x 1)) (and (= y! (- y 1)) (and (= i! i) (= j! j) ) ) ) ) (and (= x 0) (and (= x! x) (and (= y! y) (and (= i! i) (= j! j) ) ) ) ) ) )(inv-f x! y! i! j! )))
(constraint (=> (inv-f x y i j )(=> (= x 0)(or (not (= i j)) (= y 0) ))))
(check-synth)

